
******************************************************************************
This program contains Ipopt, a library for large-scale nonlinear optimization.
 Ipopt is released as open source code under the Eclipse Public License (EPL).
         For more information visit http://projects.coin-or.org/Ipopt
******************************************************************************

This is Ipopt version 3.12.13, running with linear solver mumps.
NOTE: Other linear solvers might be more efficient (see Ipopt documentation).

Number of nonzeros in equality constraint Jacobian...:      371
Number of nonzeros in inequality constraint Jacobian.:      118
Number of nonzeros in Lagrangian Hessian.............:      143

Total number of variables............................:       86
                     variables with only lower bounds:       16
                variables with lower and upper bounds:       42
                     variables with only upper bounds:        0
Total number of equality constraints.................:       78
Total number of inequality constraints...............:       32
        inequality constraints with only lower bounds:        0
   inequality constraints with lower and upper bounds:        0
        inequality constraints with only upper bounds:       32

iter    objective    inf_pr   inf_du lg(mu)  ||d||  lg(rg) alpha_du alpha_pr  ls
   0  3.0287168e+04 3.09e+00 1.00e+02   0.0 0.00e+00    -  0.00e+00 0.00e+00   0
   1  3.0287164e+04 3.09e+00 1.00e+02  -0.5 2.27e+03    -  3.64e-06 7.84e-08f  3
   2  3.0287129e+04 3.09e+00 2.05e+05   1.5 4.87e+04    -  2.58e-04 2.84e-08f  2
   3  3.0287043e+04 3.09e+00 2.98e+07   3.2 9.69e+03    -  1.61e-04 2.91e-07f  2
   4  3.0287072e+04 3.09e+00 2.92e+07   3.6 8.81e+05    -  2.06e-08 1.12e-07f  2
   5  3.0287074e+04 3.09e+00 2.95e+07   1.5 1.34e+06    -  1.04e-07 7.55e-09f  5
   6r 3.0287074e+04 3.09e+00 1.00e+03   1.5 0.00e+00    -  0.00e+00 5.81e-08R  2
   7r 3.0343034e+04 2.50e+00 3.89e+03   0.4 8.91e+00    -  3.04e-01 5.29e-01f  1
   8r 3.0331515e+04 2.45e+00 3.68e+03  -0.2 2.29e+00    -  9.71e-01 4.03e-01f  1
   9r 3.0169468e+04 2.29e+00 4.62e+02  -0.1 5.55e+00    -  9.92e-01 8.89e-01f  1
iter    objective    inf_pr   inf_du lg(mu)  ||d||  lg(rg) alpha_du alpha_pr  ls
  10r 3.0106846e+04 2.40e+00 5.30e+02  -0.8 5.69e+00    -  1.00e+00 9.77e-01f  1
  11r 3.0094502e+04 2.46e+00 3.68e+02  -1.5 1.81e+00    -  1.00e+00 1.00e+00f  1
  12r 3.0183995e+04 2.73e+00 6.18e+00  -2.2 1.73e+00    -  1.00e+00 1.00e+00f  1
  13r 3.0254451e+04 2.89e+00 1.03e+01  -3.0 1.90e+00    -  1.00e+00 9.86e-01f  1
  14r 3.0282551e+04 3.06e+00 1.20e+00  -3.6 9.23e-01    -  1.00e+00 9.97e-01f  1
  15r 3.0286449e+04 3.09e+00 3.74e+01  -4.9 1.40e-01    -  1.00e+00 8.81e-01f  1
  16r 3.0287035e+04 3.09e+00 2.72e+00  -5.1 8.28e-02    -  1.00e+00 9.93e-01f  1
  17r 3.0287112e+04 3.09e+00 1.10e+00  -5.6 9.44e-02    -  1.00e+00 9.95e-01f  1
  18r 3.0287130e+04 3.09e+00 4.55e+01  -6.2 3.14e-02    -  1.00e+00 7.81e-01f  1
  19r 3.0287133e+04 3.09e+00 2.16e+02  -6.1 7.12e-03    -  1.00e+00 6.34e-01f  1
iter    objective    inf_pr   inf_du lg(mu)  ||d||  lg(rg) alpha_du alpha_pr  ls
  20r 3.0287141e+04 3.09e+00 4.77e-05  -6.7 1.17e-03    -  1.00e+00 1.00e+00f  1
  21r 3.0287143e+04 3.09e+00 2.60e+00  -8.2 1.08e-03    -  1.00e+00 9.61e-01f  1
  22r 3.0287143e+04 3.09e+00 5.19e-06  -9.0 5.54e-04    -  1.00e+00 1.00e+00f  1

Number of Iterations....: 22

                                   (scaled)                 (unscaled)
Objective...............:   6.0574286171963365e+01    3.0287143085981683e+04
Dual infeasibility......:   1.0000000099960380e+02    5.0000000499801899e+04
Constraint violation....:   1.0510324903830293e+00    3.0932512154346501e+00
Complementarity.........:   1.0135109397282147e-09    5.0675546986410733e-07
Overall NLP error.......:   3.4067722413294277e+01    5.0000000499801899e+04


Number of objective function evaluations             = 35
Number of objective gradient evaluations             = 8
Number of equality constraint evaluations            = 35
Number of inequality constraint evaluations          = 35
Number of equality constraint Jacobian evaluations   = 25
Number of inequality constraint Jacobian evaluations = 25
Number of Lagrangian Hessian evaluations             = 23
Total CPU secs in IPOPT (w/o function evaluations)   =      0.017
Total CPU secs in NLP function evaluations           =      0.001

EXIT: Converged to a point of local infeasibility. Problem may be infeasible.
